width,height
10,25
4,1
1,2
5,6
5,8
6,1
10,1
5,3
8,2
3,9
8,2
4,6
2,2
3,3
1,10
2,1
6,2
7,9
4,9
8,7
10,6
2,7
9,8
6,9
3,6
3,7
2,3
10,7
6,7
5,5
1,9
10,9
7,10
10,7
10,10
7,2
7,7
3,1
3,7
4,6
3,8
6,5
7,5
7,4
9,3
5,7
5,8
4,5
4,10
4,5
10,8
9,1
7,8
7,7
7,6
4,4
10,10
7,10
3,4
7,4
10,7
10,9
9,10
7,6
9,8
10,1
2,1
10,8
6,2
2,8
3,8
6,6
10,6
4,2
7,4
7,2
2,8
8,4
6,2
2,10
2,10
3,7
10,6
4,8
8,6
7,1
4,4
7,10
4,8
10,10
3,6
7,5
4,4
8,6
4,4
7,6
8,8
7,8
6,10
7,6
2,9
